VER
1

OBJSENSE
MIN

VAR
3 1
F 3

PSDVAR
1
3

CON
21 5
L= 2
L+ 3
L- 3
L+ 1
L+ 12

OBJFCOORD
5
0 0 0 2.000000
0 1 0 1.000000
0 1 1 2.000000
0 2 1 1.000000
0 2 2 2.000000

OBJACOORD
1
1 1.000000

FCOORD
21
0 0 0 0 1.000000
0 0 1 1 1.000000
0 0 2 2 1.000000
1 0 0 0 1.000000
1 0 1 0 1.000000
1 0 1 1 1.000000
1 0 2 0 1.000000
1 0 2 1 1.000000
1 0 2 2 1.000000
9 0 0 0 1.0
10 0 0 0 -1.0
11 0 1 0 1.0
12 0 1 0 -1.0
13 0 1 1 1.0
14 0 1 1 -1.0
15 0 2 0 1.0
16 0 2 0 -1.0
17 0 2 1 1.0
18 0 2 1 -1.0
19 0 2 2 1.0
20 0 2 2 -1.0


ACOORD
12
0 1 1.000000
1 0 1.000000
1 2 1.000000
2 0 -1.000000
2 1 1.000000
2 2 -1.000000
3 1 1.000000
4 2 1.000000
5 1 1.000000
6 2 1.000000
7 0 1.0
8 0 1.0

BCOORD
18
0 -1.000000
1 -0.500000
5 -1.000000
6 -1.000000
7 -1.0
8 10.0
9 1.0
10 1.0 
11 2.0
12 2.0
13 1.0
14 1.0
15 2.0
16 2.0
17 2.0
18 2.0
19 1.0
20 1.0
